(set-option :count-models true)
(set-logic QF_BV)
(set-option :print-clauses-file "./counts.cnf")(set-info :smt-lib-version 2.0)
(declare-fun rho_1 () (_ BitVec 32))
(declare-fun phi_1 () Bool)
(declare-fun warehouseid () (_ BitVec 32))
(declare-fun iroliid () (_ BitVec 32))
(declare-fun test () (_ BitVec 32))
(assert (= rho_1 (bvadd (bvmul warehouseid #b00000000000000011000011010100000) iroliid)))
(assert (= phi_1 (and (bvult warehouseid #b00000000000000000000000000000001)(bvult iroliid #b00000000000000011000011010100000))))
(assert (and (bvult #b00000000000000001100001101001111 rho_1) (bvult rho_1 #b00000000000000011000011010100000)))
(assert phi_1)
(assert (= (! test :named v1) rho_1))
(count-models v1)
(exit)